*SENSE:Maximize
NAME          MODEL
ROWS
 N  OBJ
 G  C0000000
 G  C0000001
 G  C0000002
COLUMNS
    X0000000  C0000001  -7.000000000000e+00
    X0000000  C0000002   6.000000000000e+00
    X0000000  OBJ        6.000000000000e+00
    X0000001  C0000000   6.000000000000e+00
    X0000001  C0000001   1.000000000000e+00
    X0000001  C0000002   1.000000000000e+00
    X0000001  OBJ        8.000000000000e+00
    X0000003  C0000000   8.000000000000e+00
    X0000003  C0000001  -6.000000000000e+00
    X0000003  C0000002   2.000000000000e+00
    X0000003  OBJ        6.000000000000e+00
    X0000003  C0000000   8.000000000000e+00
    X0000003  C0000001  -6.000000000000e+00
    X0000003  C0000002   2.000000000000e+00
    X0000003  OBJ        6.000000000000e+00
RHS
    RHS       C0000000   1.200000000000e+01
    RHS       C0000001   5.000000000000e+00
    RHS       C0000002   5.000000000000e+00
BOUNDS
ENDATA
